100 8
345 759
263 857
192 474
397 902
586 260
645 311
330 812
284 59
651 670
529 530
841 492
703 603
533 228
626 724
105 564
612 725
557 220
487 189
907 632
489 337
964 602
785 641
796 357
438 411
455 838
675 633
372 688
646 589
459 649
337 162
794 525
265 208
621 642
886 519
892 537
222 578
208 582
913 612
667 605
119 203
600 550
886 336
839 305
251 237
471 766
414 733
401 821
160 320
535 863
750 264
345 364
720 515
471 428
521 784
379 356
102 448
220 242
383 333
545 198
466 175
396 235
316 324
399 346
642 161
65 199
728 741
657 243
364 295
902 603
399 309
197 348
628 271
514 235
669 795
252 206
548 550
885 611
437 294
833 637
622 617
476 313
582 636
538 201
486 837
334 226
737 596
516 168
622 530
561 781
465 392
213 244
520 209
620 437
161 363
597 398
111 269
181 541
460 312
677 530
288 937
